c Random generated cnf formula, satisfiable: true
p cnf 10 50
-5 -8 -7 0
1 -9 4 0
1 2 -8 0
-6 -10 -4 0
-4 -10 1 0
6 9 1 0
-5 -8 1 0
-9 -1 2 0
7 -10 9 0
-2 -10 8 0
10 7 6 0
7 -1 9 0
-1 -5 -7 0
-8 -3 -7 0
2 9 -3 0
-3 -8 -1 0
6 -10 -2 0
6 4 2 0
-10 6 -3 0
-3 2 -10 0
10 7 -2 0
-9 -3 -4 0
8 -10 -1 0
4 -9 2 0
-10 -9 1 0
4 1 5 0
-8 9 10 0
6 7 9 0
-6 1 -8 0
-2 -3 -1 0
-10 -1 8 0
6 4 -8 0
5 -8 9 0
-7 5 -4 0
8 4 -3 0
-2 7 -1 0
6 5 2 0
-10 -9 -7 0
8 5 -6 0
9 -10 1 0
-3 4 5 0
-10 5 -6 0
6 9 4 0
-2 -8 9 0
2 6 -10 0
-10 -9 6 0
8 -6 -1 0
8 -10 -4 0
-5 8 -1 0
-8 1 -2 0
